\ Model Cl_40_Ins_8.lp
\ LP format - for model browsing. Use MPS format to capture full model detail.
Maximize
 
Subject To
 obj1: y[0] = 0
 obj2: y[1] = 0
 obj1_Exp: - y[0] + 99 x[0] + 94 x[1] + 84 x[2] + 83 x[3] + 82 x[4]
   + 81 x[5] + 75 x[6] + 74 x[7] + 71 x[8] + 65 x[9] + 65 x[10] + 64 x[11]
   + 59 x[12] + 55 x[13] + 54 x[14] + 53 x[15] + 51 x[16] + 43 x[17]
   + 43 x[18] + 42 x[19] + 41 x[20] + 41 x[21] + 33 x[22] + 31 x[23]
   + 28 x[24] + 27 x[25] + 25 x[26] + 25 x[27] + 24 x[28] + 24 x[29]
   + 21 x[30] + 20 x[31] + 19 x[32] + 15 x[33] + 12 x[34] + 11 x[35]
   + 7 x[36] + 6 x[37] + 4 x[38] + x[39] = 0
 obj2_Exp: - y[1] + 56 x[0] + 58 x[1] + 41 x[2] + 90 x[3] + 96 x[4]
   + 83 x[5] + 43 x[6] + 8 x[7] + 9 x[8] + 54 x[9] + 97 x[10] + 60 x[11]
   + 47 x[12] + 5 x[13] + 33 x[14] + 78 x[15] + 15 x[16] + 21 x[17]
   + 39 x[18] + 52 x[19] + 16 x[20] + 49 x[21] + 8 x[22] + 95 x[23]
   + 21 x[24] + 16 x[25] + 99 x[26] + 70 x[27] + 64 x[28] + 67 x[29]
   + 68 x[30] + 77 x[31] + 23 x[32] + 53 x[33] + 50 x[34] + 84 x[35]
   + 41 x[36] + 90 x[37] + x[38] + 53 x[39] = 0
 Budget: 109 x[0] + 104 x[1] + 94 x[2] + 93 x[3] + 92 x[4] + 91 x[5]
   + 85 x[6] + 84 x[7] + 81 x[8] + 75 x[9] + 75 x[10] + 74 x[11] + 69 x[12]
   + 65 x[13] + 64 x[14] + 63 x[15] + 61 x[16] + 53 x[17] + 53 x[18]
   + 52 x[19] + 51 x[20] + 51 x[21] + 43 x[22] + 41 x[23] + 38 x[24]
   + 37 x[25] + 35 x[26] + 35 x[27] + 34 x[28] + 34 x[29] + 31 x[30]
   + 30 x[31] + 29 x[32] + 25 x[33] + 22 x[34] + 21 x[35] + 17 x[36]
   + 16 x[37] + 14 x[38] + 11 x[39] <= 983
Bounds
Binaries
 x[0] x[1] x[2] x[3] x[4] x[5] x[6] x[7] x[8] x[9] x[10] x[11] x[12] x[13]
 x[14] x[15] x[16] x[17] x[18] x[19] x[20] x[21] x[22] x[23] x[24] x[25]
 x[26] x[27] x[28] x[29] x[30] x[31] x[32] x[33] x[34] x[35] x[36] x[37]
 x[38] x[39]
Generals
 y[0] y[1]
End
